nb_case = 9;
nb_op = 4;

A = [6,1,_,_,1,4,2,2,1,6];
B = [_,3,_,2,_,_,_,4,1,_];
C = [_,_,_,_,2,_,_,_,2,_];
D = [_,_,9,_,1,_,7,_,_,9];

opA = ["+","+","*","+"];
opB = ["+","*","-","*"];
opC = ["+","*","*","*"];
opD = ["+","+","+","+"];

opAB = "*";
opBC = "*";
opCD = "-";
opDA = "+";

AB = 1;
BC = 1;
CD = 1;
DA = 5;